NAME : in_house_8_4
TYPE : TSP
DIMENSION : 8
EDGE_WEIGHT_TYPE : EXPLICIT
EDGE_WEIGHT_FORMAT : UPPER_ROW
COMMENT : INVERSION_SHIFT=4
EDGE_WEIGHT_SECTION
57
42
55
24
20
29
24
26
26
50
18
61
63
10
57
4
17
11
30
40
47
46
6
3
28
30
60
49
